
Gurobi 9.5.2 (mac64[arm]) logging started Wed Apr 19 12:20:27 2023

Set parameter LogFile to value "Java/output/pure_mip/scenario_seed_0_nJob_20_machineCount_1/mip_increment_2/log.txt"
Gurobi Optimizer version 9.5.2 build v9.5.2rc0 (mac64[arm])
Thread count: 8 physical cores, 8 logical processors, using up to 8 threads
Optimize a model with 652 rows, 5733 columns and 44785 nonzeros
Model fingerprint: 0xb0889d21
Variable types: 0 continuous, 5733 integer (5733 binary)
Coefficient statistics:
  Matrix range     [1e+00, 2e+02]
  Objective range  [1e+00, 3e+06]
  Bounds range     [1e+00, 1e+00]
  RHS range        [1e+00, 1e+00]
Presolve removed 43 rows and 933 columns
Presolve time: 0.05s
Presolved: 609 rows, 4800 columns, 36337 nonzeros
Variable types: 0 continuous, 4800 integer (4784 binary)

Root relaxation: objective 4.721611e+04, 4934 iterations, 0.17 seconds (0.33 work units)

    Nodes    |    Current Node    |     Objective Bounds      |     Work
 Expl Unexpl |  Obj  Depth IntInf | Incumbent    BestBd   Gap | It/Node Time

     0     0 47216.1146    0  225          - 47216.1146      -     -    0s
     0     0 61333.9165    0  278          - 61333.9165      -     -    0s
     0     0 63728.7170    0  257          - 63728.7170      -     -    0s
     0     0 64769.8948    0  279          - 64769.8948      -     -    0s
     0     0 64832.1714    0  287          - 64832.1714      -     -    0s
     0     0 90856.1439    0  337          - 90856.1439      -     -    1s
     0     0 91017.3211    0  354          - 91017.3211      -     -    1s
     0     0 91029.4782    0  346          - 91029.4782      -     -    1s
     0     0 102488.238    0  345          - 102488.238      -     -    1s
     0     0 103763.406    0  364          - 103763.406      -     -    1s
     0     0 103770.931    0  364          - 103770.931      -     -    1s
     0     0 112341.204    0  370          - 112341.204      -     -    1s
     0     0 114652.534    0  347          - 114652.534      -     -    2s
     0     0 114872.744    0  365          - 114872.744      -     -    2s
     0     0 114903.518    0  362          - 114903.518      -     -    2s
     0     0 134001.427    0  383          - 134001.427      -     -    2s
     0     0 135859.759    0  385          - 135859.759      -     -    2s
     0     0 135889.414    0  379          - 135889.414      -     -    2s
     0     0 147470.366    0  385          - 147470.366      -     -    3s
     0     0 148582.956    0  371          - 148582.956      -     -    3s
     0     0 148775.268    0  374          - 148775.268      -     -    3s
H    0     0                    1265689.0000 148902.474  88.2%     -    3s
H    0     0                    1250173.0000 148902.474  88.1%     -    3s
     0     0 148902.474    0  384 1250173.00 148902.474  88.1%     -    3s
     0     0 148915.297    0  386 1250173.00 148915.297  88.1%     -    3s
     0     0 156902.192    0  414 1250173.00 156902.192  87.4%     -    3s
H    0     0                    1237341.0000 156902.192  87.3%     -    3s
     0     0 157962.409    0  413 1237341.00 157962.409  87.2%     -    3s
     0     0 158075.099    0  392 1237341.00 158075.099  87.2%     -    3s
     0     0 158086.553    0  395 1237341.00 158086.553  87.2%     -    3s
     0     0 165279.853    0  415 1237341.00 165279.853  86.6%     -    3s
     0     0 165852.384    0  413 1237341.00 165852.384  86.6%     -    3s
     0     0 165949.881    0  417 1237341.00 165949.881  86.6%     -    3s
     0     0 168378.558    0  404 1237341.00 168378.558  86.4%     -    4s
H    0     0                    1234433.0000 168378.558  86.4%     -    4s
     0     0 168981.803    0  432 1234433.00 168981.803  86.3%     -    4s
     0     0 169062.822    0  443 1234433.00 169062.822  86.3%     -    4s
     0     0 171460.571    0  401 1234433.00 171460.571  86.1%     -    4s
H    0     0                    1195361.0000 171460.571  85.7%     -    4s
H    0     0                    1186947.0000 171460.571  85.6%     -    4s
     0     0 171870.520    0  436 1186947.00 171870.520  85.5%     -    4s
H    0     0                    941621.00000 171993.299  81.7%     -    4s
     0     0 171993.299    0  432 941621.000 171993.299  81.7%     -    4s
     0     0 172027.399    0  433 941621.000 172027.399  81.7%     -    4s
     0     0 172853.570    0  447 941621.000 172853.570  81.6%     -    4s
H    0     0                    928789.00000 172853.570  81.4%     -    4s
H    0     0                    872415.00000 172853.570  80.2%     -    4s
     0     0 172951.465    0  450 872415.000 172951.465  80.2%     -    4s
     0     0 174986.032    0  439 872415.000 174986.032  79.9%     -    4s
H    0     0                    867149.00000 174986.032  79.8%     -    4s
     0     0 175281.696    0  459 867149.000 175281.696  79.8%     -    4s
     0     0 175458.981    0  465 867149.000 175458.981  79.8%     -    4s
     0     0 175506.399    0  462 867149.000 175506.399  79.8%     -    4s
     0     0 176284.668    0  456 867149.000 176284.668  79.7%     -    4s
     0     0 176284.668    0  430 867149.000 176284.668  79.7%     -    5s
H    0     0                    476829.00000 176284.668  63.0%     -    5s
H    0     0                    466101.00000 176343.634  62.2%     -    5s
     0     2 176343.634    0  430 466101.000 176343.634  62.2%     -    5s
H   31    40                    427087.00000 196153.046  54.1%  2170    7s
H   32    40                    216785.00000 196153.046  9.52%  2150    7s
H   73    30                    212009.00000 196153.046  7.48%  1420    8s
H  109    22                    212007.00000 196153.046  7.48%  1065    9s
H  125    24                    212003.00000 201661.020  4.88%   988    9s

Cutting planes:
  Cover: 19
  Clique: 194
  MIR: 163
  StrongCG: 98
  GUB cover: 150
  Zero half: 27
  Mod-K: 2
  RLT: 3

Explored 321 nodes (200408 simplex iterations) in 9.79 seconds (24.50 work units)
Thread count was 8 (of 8 available processors)

Solution count 10: 212003 212007 212009 ... 928789

Optimal solution found (tolerance 1.00e-04)
Best objective 2.120030000000e+05, best bound 2.120030000000e+05, gap 0.0000%
